% demand
num_movements = 40;
loading_factor = [2000, 900, 1100, 800, 850, 950, 1850, 1200, 1850, 1650, 1150, 1600, 1500, 1650, 1300, 1050, 1050, 1850, 1550, 1600, 800, 1100, 950, 1950, 800, 1500, 850, 1100, 800, 1700, 1850, 800, 1500, 1400, 1000, 1550, 1600, 1200, 1550, 1150];
pickup_time = [0, 0, 0, 0, 0, 0, 0, 1, 2, 2, 2, 3, 3, 3, 3, 3, 3, 5, 5, 6, 7, 8, 8, 8, 8, 8, 9, 9, 9, 9, 9, 9, 9, 10, 10, 10, 10, 10, 11, 11];
delivery_time = [3, 1, 3, 3, 3, 3, 2, 2, 3, 6, 9, 6, 4, 7, 4, 4, 8, 6, 7, 7, 9, 9, 9, 9, 10, 9, 13, 11, 10, 10, 10, 13, 13, 13, 13, 13, 11, 13, 13, 13];

% transporter definition
total_capacity = 11000;
num_decks = 4;
capacity = [3000, 3000, 1000, 4000];

% ways out of decks
num_ways_out = 2;
paths_out = array3d(decks, ways_out, decks, [
% ways out of deck d1
2, 4, 0, 0, 3, 4, 0, 0, 

% ways out of deck d2
4, 0, 0, 0, 0, 0, 0, 0,	

% ways out of deck d3
4, 0, 0, 0, 0, 0, 0, 0,	

% ways out of deck d4
0, 0, 0, 0,	0, 0, 0, 0,	

]);

